data/solutions/planning/degenerate/intermediate/highest_rank_objective/degenerate_intermediate_instance27_cplex.sol
Elapsed time: 25.03
Nodes explored: 1394
Nodes left: -
Relative gap: -
Upper bound: 7236769166.0
Lower bound: -
C[0]=443569.0
C[1]=440496.0
C[2]=439820.0
C[3]=439335.0
C[4]=439124.0
C[5]=437460.0
C[6]=437337.0
C[7]=436776.0
C[8]=436257.0
C[9]=435714.0
C[10]=434086.0
C[11]=428432.0
C[12]=426616.0
C[13]=424558.0
y[0]=12
y[1]=9
y[2]=4
y[3]=8
y[4]=9
y[5]=8
y[6]=7
y[7]=0
y[8]=3
y[9]=5
y[10]=9
y[11]=2
y[12]=11
y[13]=12
y[14]=9
y[15]=12
y[16]=6
y[17]=7
y[18]=1
y[19]=1
y[20]=11
y[21]=0
y[22]=13
y[23]=13
y[24]=2
y[25]=12
y[26]=2
y[27]=13
y[28]=9
y[29]=13
y[30]=10
y[31]=12
y[32]=11
y[33]=13
y[34]=4
y[35]=12
y[36]=8
y[37]=8
y[38]=11
y[39]=10
y[40]=12
y[41]=9
y[42]=12
y[43]=13
y[44]=4
y[45]=8
y[46]=5
y[47]=10
y[48]=9
y[49]=3
y[50]=2
y[51]=9
y[52]=9
y[53]=6
y[54]=2
