data/solutions/planning/degenerate/intermediate/highest_rank_objective/degenerate_intermediate_instance27_cplex.log
Found incumbent of value 6099580.000000 after 0.00 sec. (0.07 ticks)
Tried aggregator 2 times.
Aggregator did 14 substitutions.
Reduced MIP has 69 rows, 771 columns, and 1554 nonzeros.
Reduced MIP has 770 binaries, 0 generals, 0 SOSs, and 0 indicators.
Presolve time = 0.00 sec. (1.66 ticks)
Probing time = 0.00 sec. (1.29 ticks)
Cover probing fixed 0 vars, tightened 5 bounds.
Tried aggregator 1 time.
Reduced MIP has 69 rows, 771 columns, and 1554 nonzeros.
Reduced MIP has 770 binaries, 1 generals, 0 SOSs, and 0 indicators.
Presolve time = 0.00 sec. (1.11 ticks)
Probing time = 0.00 sec. (0.87 ticks)
Clique table members: 55.
MIP emphasis: balance optimality and feasibility.
MIP search method: dynamic search.
Parallel mode: none, using 1 thread.
Root relaxation solution time = 0.00 sec. (1.55 ticks)

        Nodes                                         Cuts/
   Node  Left     Objective  IInf  Best Integer    Best Bound    ItCnt     Gap

*     0+    0                      6099580.0000   261814.0000            95.71%
      0     0   435684.2857    24  6099580.0000   435684.2857       92   92.86%
*     0+    0                       684986.0000   435684.2857            36.40%
      0     0   435685.0000    31   684986.0000      Cuts: 10      122   36.40%
*     0+    0                       619859.0000   435685.0000            29.71%
      0     0   435685.0000    28   619859.0000      Cuts: 24      174   29.71%
*     0+    0                       614963.0000   435685.0000            29.15%
      0     0   435685.0000    41   614963.0000      Cuts: 20      253   29.15%
*     0+    0                       549560.0000   435685.0000            20.72%
*     0+    0                       538896.0000   435685.0000            19.15%
*     0+    0                       519500.0000   435685.0000            16.13%
*     0+    0                       494529.0000   435685.0000            11.90%
      0     2   435685.0000    25   494529.0000   435685.0000      274   11.90%
Elapsed time = 0.05 sec. (59.21 ticks, tree = 0.01 MB, solutions = 8)
*    10+    8                       490354.0000   435685.0000            11.15%
*    40+   25                       487050.0000   435685.0000            10.55%
*    60+   20                       483295.0000   435685.0000             9.85%
*    60+   20                       482164.0000   435685.0000             9.64%
*    90+   46                       478383.0000   435685.0000             8.93%
*   100+   51                       474812.0000   435685.0000             8.24%
*   110+   47                       474236.0000   435685.0000             8.13%
*   113    45      integral     0   472004.0000   435685.0000     1151    7.69%
*   120+   47                       471616.0000   435685.0000             7.62%
*   130+   50                       470769.0000   435685.0000             7.45%
*   139    57      integral     0   468542.0000   435685.0000     1380    7.01%
*   140+   54                       468292.0000   435685.0000             6.96%
*   150+   59                       468228.0000   435685.0000             6.95%
*   160+   62                       463596.0000   435685.0000             6.02%
*   170+   59                       460872.0000   435685.0000             5.47%
*   180+   64                       460794.0000   435685.0000             5.45%
*   190+   72                       458353.0000   435685.0000             4.95%
*   200+   78                       455590.0000   435685.0000             4.37%
*   220+   98                       453466.0000   435685.0000             3.92%
*   280+  156                       453440.0000   435685.0000             3.92%
*   300+  110                       452866.0000   435685.0000             3.79%
*   340+   58                       451211.0000   435685.0000             3.44%
*   360+   72                       450897.0000   435685.0000             3.37%
*   450+  146                       449751.0000   435685.0000             3.13%
*   470+  148                       449098.0000   435685.0000             2.99%
*   520+  183                       448861.0000   435685.0000             2.94%
*   600+  185                       448096.0000   435685.0000             2.77%
*   700+  140                       445653.0000   435685.0000             2.24%
   1000   345   443102.7500    17   445653.0000   435685.0000     4111    2.24%
   1001   344    infeasible         445653.0000   435685.0000     4111    2.24%
   1002   343    infeasible         445653.0000   435685.0000     4111    2.24%
   1003   342    infeasible         445653.0000   435685.0000     4111    2.24%
   1004   343   436005.0000    24   445653.0000   435685.0000     4155    2.24%
   1005   344   436005.0000    24   445653.0000   435685.0000     4157    2.24%
   1006   345   443611.0000     8   445653.0000   435685.0000     4165    2.24%
   1007   346   443611.0000     8   445653.0000   435685.0000     4168    2.24%
   1008   347   443611.0000     8   445653.0000   435685.0000     4169    2.24%
*  1290+  601                       445525.0000   435685.0000             2.21%
*  1291+  405                       443611.0000   435685.0000             1.79%
*  1292+  270                       443569.0000   435685.0000             1.78%

Clique cuts applied:  2
Cover cuts applied:  3
Implied bound cuts applied:  1
Flow cuts applied:  3
Mixed integer rounding cuts applied:  6

Root node processing (before b&c):
  Real time             =    0.05 sec. (59.40 ticks)
Sequential b&c:
  Real time             =    0.35 sec. (400.60 ticks)
                          ------------
Total (root+branch&cut) =    0.40 sec. (460.00 ticks)

Populate: phase II 
Tried aggregator 2 times.
Aggregator did 14 substitutions.
Reduced MIP has 69 rows, 771 columns, and 1554 nonzeros.
Reduced MIP has 770 binaries, 0 generals, 0 SOSs, and 0 indicators.
Presolve time = 0.00 sec. (1.66 ticks)
Probing time = 0.00 sec. (1.29 ticks)
Cover probing fixed 0 vars, tightened 5 bounds.
Clique table members: 55.
MIP emphasis: balance optimality and feasibility.
MIP search method: dynamic search.
Parallel mode: none, using 1 thread.
Root relaxation solution time = 0.00 sec. (1.55 ticks)

        Nodes                                         Cuts/
   Node  Left     Objective  IInf  Best Integer    Best Bound    ItCnt     Gap

*     0+    0                       443569.0000        0.0000           100.00%
      0     0   435684.2857    24   443569.0000   435684.2857       92    1.78%
      0     2   435685.0000    23   443569.0000   435685.0000       92    1.78%
Elapsed time = 0.03 sec. (31.20 ticks, tree = 0.01 MB, solutions = 53)
      1     3   435685.0000    23   443569.0000   435685.0000       99    1.78%
      2     4   435685.0000    23   443569.0000   435685.0000      104    1.78%
      3     5   435685.0000    22   443569.0000   435685.0000      109    1.78%
      4     6   435685.0000    22   443569.0000   435685.0000      114    1.78%
      5     7   435685.0000    21   443569.0000   435685.0000      123    1.78%
      6     8   435685.0000    22   443569.0000   435685.0000      129    1.78%
      7     9   435685.0000    21   443569.0000   435685.0000      133    1.78%
      8    10   435685.0000    22   443569.0000   435685.0000      143    1.78%
      9    11   435685.0000    22   443569.0000   435685.0000      147    1.78%
     10    12   435685.0000    21   443569.0000   435685.0000      151    1.78%
Elapsed time = 3.95 sec. (3662.87 ticks, tree = 0.02 MB, solutions = 445)
     16    18   435685.0000    23   443569.0000   435685.0000      184    1.78%
     17    19   435685.0000    23   443569.0000   435685.0000      187    1.78%
     18    20   435685.0000    22   443569.0000   435685.0000      193    1.78%
     19    21   435685.0000    22   443569.0000   435685.0000      196    1.78%
     20    22   435685.0000    21   443569.0000   435685.0000      198    1.78%
     21    23   489019.0000    10   443569.0000   435685.0000      210    1.78%
     22    24   435685.0000    21   443569.0000   435685.0000      217    1.78%
     23    25   435685.0000    21   443569.0000   435685.0000      218    1.78%
     24    26   435685.0000    21   443569.0000   435685.0000      221    1.78%
     25    27   435685.0000    21   443569.0000   435685.0000      222    1.78%
Elapsed time = 6.58 sec. (6234.09 ticks, tree = 0.04 MB, solutions = 698)
     30    32   435685.0000    21   443569.0000   435685.0000      250    1.78%
     31    33   435685.0000    22   443569.0000   435685.0000      256    1.78%
     32    34   435685.0000    21   443569.0000   435685.0000      263    1.78%
     33    35   435685.0000    21   443569.0000   435685.0000      266    1.78%
     34    36   482640.0000    13   443569.0000   435685.0000      274    1.78%
     35    37   435685.0000    22   443569.0000   435685.0000      278    1.78%
     36    38   435685.0000    22   443569.0000   435685.0000      279    1.78%
     37    39   435685.0000    22   443569.0000   435685.0000      281    1.78%
     38    40   435685.0000    22   443569.0000   435685.0000      290    1.78%
     39    41   435685.0000    22   443569.0000   435685.0000      291    1.78%
Elapsed time = 9.91 sec. (9572.81 ticks, tree = 0.06 MB, solutions = 949)
     43    45   435685.0000    22   443569.0000   435685.0000      302    1.78%
     44    46   435685.0000    22   443569.0000   435685.0000      305    1.78%
     45    47   435685.0000    22   443569.0000   435685.0000      307    1.78%
     46    48   435685.0000    21   443569.0000   435685.0000      313    1.78%
     47    49   435685.0000    21   443569.0000   435685.0000      320    1.78%
     48    50   435685.0000    21   443569.0000   435685.0000      327    1.78%
     49    51   435685.0000    21   443569.0000   435685.0000      336    1.78%
     50    52   435685.0000    21   443569.0000   435685.0000      337    1.78%
     51    53   505019.0000     6   443569.0000   435685.0000      352    1.78%
     52    54   435685.0000    21   443569.0000   435685.0000      356    1.78%
Elapsed time = 13.04 sec. (12711.57 ticks, tree = 0.08 MB, solutions = 1181)
     59    61   435685.0000    21   443569.0000   435685.0000      392    1.78%
     60    62   435685.0000    21   443569.0000   435685.0000      393    1.78%
     61    63   435685.0000    21   443569.0000   435685.0000      394    1.78%
     62    64   435685.0000    21   443569.0000   435685.0000      396    1.78%
     63    65   435685.0000    21   443569.0000   435685.0000      401    1.78%
     64    66   435685.0000    22   443569.0000   435685.0000      405    1.78%
     65    67   435685.0000    22   443569.0000   435685.0000      407    1.78%
     66    68   499554.0000     8   443569.0000   435685.0000      419    1.78%
     67    69   435685.0000    22   443569.0000   435685.0000      424    1.78%
     68    70   435685.0000    21   443569.0000   435685.0000      430    1.78%
Elapsed time = 16.14 sec. (15804.19 ticks, tree = 0.10 MB, solutions = 1449)
     72    74   470536.0000    13   443569.0000   435685.0000      446    1.78%
     73    75   435685.0000    21   443569.0000   435685.0000      450    1.78%
     74    76   435685.0000    21   443569.0000   435685.0000      452    1.78%
     75    77   435685.0000    21   443569.0000   435685.0000      454    1.78%
     76    78   435685.0000    22   443569.0000   435685.0000      461    1.78%
     77    79   435685.0000    21   443569.0000   435685.0000      465    1.78%
     78    80   435685.0000    21   443569.0000   435685.0000      467    1.78%
     79    81   445653.0000    20   443569.0000   435685.0000      475    1.78%
     80    82   435685.0000    21   443569.0000   435685.0000      483    1.78%
     81    83   435685.0000    22   443569.0000   435685.0000      486    1.78%
Elapsed time = 19.52 sec. (19306.64 ticks, tree = 0.12 MB, solutions = 1669)
     84    86   435685.0000    22   443569.0000   435685.0000      489    1.78%
     85    87   435685.0000    22   443569.0000   435685.0000      490    1.78%
     86    88   435685.0000    22   443569.0000   435685.0000      491    1.78%
     87    89   435685.0000    21   443569.0000   435685.0000      500    1.78%
     88    90   435685.0000    22   443569.0000   435685.0000      505    1.78%
     89    91   435685.0000    21   443569.0000   435685.0000      507    1.78%
     90    92   435685.0000    21   443569.0000   435685.0000      510    1.78%
     91    93   435685.0000    21   443569.0000   435685.0000      513    1.78%
     92    94   435685.0000    21   443569.0000   435685.0000      514    1.78%
     93    95   435685.0000    21   443569.0000   435685.0000      517    1.78%
Elapsed time = 22.89 sec. (22729.48 ticks, tree = 0.13 MB, solutions = 1895)
     98   100   435685.0000    22   443569.0000   435685.0000      538    1.78%
     99   101   435685.0000    21   443569.0000   435685.0000      544    1.78%
    100   102   435685.0000    21   443569.0000   435685.0000      545    1.78%
    101   103   435685.0000    21   443569.0000   435685.0000      546    1.78%

Root node processing (before b&c):
  Real time             =    0.05 sec. (41.93 ticks)
Sequential b&c:
  Real time             =   24.58 sec. (24477.42 ticks)
                          ------------
Total (root+branch&cut) =   24.63 sec. (24519.35 ticks)
